p cnf 8 32
6 -3 -4 7 0
-1 -2 -3 8 -5 7 0
-3 6 -1 -4 0
5 -1 0
1 -2 -6 -4 0
-3 1 5 6 0
-7 -1 6 3 0
-6 -1 4 -5 7 3 -2 -8 0
8 7 -1 0
-4 -7 -8 1 0
2 -5 -8 4 0
1 -4 8 0
-1 4 -2 0
-4 2 0
4 1 -2 -3 7 -6 5 -8 0
5 8 -1 -2 0
-3 2 6 7 1 -8 5 0
-8 -6 4 3 -2 0
-2 -7 3 -6 0
-5 2 -6 -1 0
7 8 1 0
-6 2 -3 0
-6 -1 -7 0
-3 1 2 0
-8 -4 6 -1 0
4 3 5 -7 0
1 -2 0
-7 2 6 -3 -1 8 0
6 -7 -8 0
-6 -7 -4 8 5 1 0
-7 2 -3 -4 0
3 -5 -2 7 0
